110213
6
5
20
19
31
30
29
28
27
26
4
3
2
75
0
1
23
22
21
25
24
46
45
44
48
47
69
68
70
67
50
49
52
53
54
42
43
33
32
35
34
40
41
60
59
58
55
56
51
66
65
71
72
73
64
63
57
62
61
39
38
36
37
18
17
16
15
74
14
13
12
11
10
9
8
7
